************************************************************************
file with basedata            : md364_.bas
initial value random generator: 650515592
************************************************************************
projects                      :  1
jobs (incl. supersource/sink ):  22
horizon                       :  175
RESOURCES
  - renewable                 :  2   R
  - nonrenewable              :  2   N
  - doubly constrained        :  0   D
************************************************************************
PROJECT INFORMATION:
pronr.  #jobs rel.date duedate tardcost  MPM-Time
    1     20      0       22        9       22
************************************************************************
PRECEDENCE RELATIONS:
jobnr.    #modes  #successors   successors
   1        1          3           2   3   4
   2        3          3          10  11  15
   3        3          2           7   8
   4        3          3           5   6  10
   5        3          2           9  17
   6        3          3          12  13  16
   7        3          1          13
   8        3          1           9
   9        3          2          12  16
  10        3          3          14  16  17
  11        3          1          14
  12        3          3          15  18  21
  13        3          2          15  17
  14        3          1          20
  15        3          2          19  20
  16        3          1          19
  17        3          3          18  20  21
  18        3          1          19
  19        3          1          22
  20        3          1          22
  21        3          1          22
  22        1          0        
************************************************************************
REQUESTS/DURATIONS:
jobnr. mode duration  R 1  R 2  N 1  N 2
------------------------------------------------------------------------
  1      1     0       0    0    0    0
  2      1     2       5    0    5    3
         2     6       0    9    4    2
         3     6       5    0    5    2
  3      1     1       5    0    8    9
         2     8       4    0    8    9
         3    10       4    0    8    8
  4      1     2       0    1   10    7
         2     9       6    0    9    7
         3    10       4    0    9    7
  5      1     6       0    8    7    8
         2     8       0    7    4    8
         3     9       0    5    2    7
  6      1     2       0    3    7    4
         2     7       7    0    6    3
         3     8       6    0    5    3
  7      1     7       7    0    9    4
         2     9       3    0    9    1
         3     9       0    6    9    2
  8      1     1       0    7    7    7
         2     3       0    7    6    4
         3     6       7    0    6    4
  9      1     1       8    0    3   10
         2     6       7    0    3    7
         3    10       7    0    2    2
 10      1     2       7    0    7    9
         2     7       6    0    4    9
         3    10       0    7    1    9
 11      1     2       4    0    7    3
         2     4       3    0    7    3
         3    10       0    6    4    2
 12      1     5       9    0    9    3
         2     5       0    8    7    3
         3    10       0    4    5    2
 13      1     5       4    0    8    7
         2    10       4    0    8    4
         3    10       3    0    8    7
 14      1     1       8    0    7    9
         2     5       7    0    6    6
         3     7       7    0    4    1
 15      1     4       0    7    8    8
         2     6       0    6    7    8
         3    10       0    3    7    7
 16      1     6       9    0    7    5
         2     6       0    7    7    6
         3     7       9    0    5    1
 17      1     2       8    0    7    4
         2     4       0    5    6    3
         3     9       5    0    1    3
 18      1     3       5    0    8    6
         2     4       4    0    6    3
         3     9       2    0    5    3
 19      1     4       4    0   10    8
         2     8       0    8    4    8
         3     8       0    9    4    7
 20      1     2       0    5    5    7
         2     6       0    4    5    4
         3     7       6    0    2    4
 21      1     2       7    0    8    7
         2     9       0    7    7    3
         3    10       6    0    7    3
 22      1     0       0    0    0    0
************************************************************************
RESOURCEAVAILABILITIES:
  R 1  R 2  N 1  N 2
   25   27  123  105
************************************************************************
MAXIMAL LAGS:
from  to  type  delay
    1   12   ES      0
    1    2   ES      0
    2   12   ES      0
    1    3   ES      0
    3   12   ES      0
    1    4   ES      0
    4   12   ES      0
    1    5   ES      0
    5   12   ES      0
    1    6   ES      0
    6   12   ES      0
    1    7   ES      0
    7   12   ES      0
    1    8   ES      0
    8   12   ES      0
    1    9   ES      0
    9   12   ES      0
    1   10   ES      0
   10   12   ES      0
    1   11   ES      0
   11   12   ES      0
    1   12   ES      0
    2   10   SS     -3
    2   10   SE      9
    2   10   ES      7
    2   10   EE     -9
    2   11   SS      2
    2   11   SE      9
    2   11   ES      3
    2   11   EE     -6
    2   15   SS      8
    2   15   SE     -7
    2   15   ES     11
    2   15   EE      1
    3    7   SS    -12
    3    7   SE      6
    3    7   ES      1
    3    7   EE      4
    3    8   SS     -2
    3    8   SE      1
    3    8   ES      4
    3    8   EE      5
    4    5   SS     10
    4    5   SE      5
    4    5   ES      8
    4    5   EE      9
    4    6   SS      5
    4    6   SE      1
    4    6   ES     12
    4    6   EE    -10
    4   10   SS    -11
    4   10   SE     12
    4   10   ES      4
    4   10   EE     -2
    5    9   SS      9
    5    9   SE      7
    5    9   ES      3
    5    9   EE     -6
    5   17   SS     -1
    5   17   SE      4
   17    5   SE      0
    5   17   ES      0
    5   17   EE      3
    6   13   SS      6
    6   13   SE     -3
    6   13   ES     -6
    6   13   EE     10
    6   16   SS     -6
    6   16   SE      1
    6   16   ES     -4
    6   16   EE     -4
    7   13   SS      3
    7   13   SE    -11
    7   13   ES     -7
    7   13   EE      0
    8    9   SS     -6
    8    9   SE     -8
    8    9   ES      3
    8    9   EE      0
    9   16   SS      3
    9   16   SE      9
    9   16   ES      1
    9   16   EE     12
   10   14   SS     -1
   10   14   SE      7
   10   14   ES      0
   10   14   EE     -4
   10   16   SS     11
   10   16   SE     -2
   10   16   ES      4
   10   16   EE      2
   10   17   SS      8
   10   17   SE     11
   10   17   ES      0
   10   17   EE      0
   11   14   SS      7
   11   14   SE     -4
   11   14   ES      6
   11   14   EE      8
   12   15   SS     -4
   12   15   SE      2
   12   15   ES     11
   12   15   EE    -10
   12   18   SS     -1
   12   18   SE     -1
   12   18   ES      8
   12   18   EE     11
   12   21   SS     -5
   12   21   SE     -4
   12   21   ES      2
   12   21   EE     -4
   13   15   SS     -2
   13   15   SE      8
   13   15   ES    -11
   13   15   EE     10
   13   17   SS      8
   13   17   SE     -8
   13   17   ES     -4
   13   17   EE    -12
   14   20   SS     12
   14   20   SE     -1
   14   20   ES     -5
   14   20   EE      2
   15   19   SS      3
   15   19   SE     -7
   15   19   ES      7
   15   19   EE      8
   15   20   SS    -12
   15   20   SE      5
   15   20   ES     11
   15   20   EE     -4
   16   19   SS      9
   16   19   SE     11
   16   19   ES      4
   16   19   EE      7
   17   18   SS      0
   17   18   SE     -2
   17   18   ES     -5
   17   18   EE      8
   17   20   SS      7
   17   20   SE     -4
   17   20   ES     -2
   17   20   EE    -12
   17   21   SS     -5
   17   21   SE      2
   17   21   ES     -1
   17   21   EE     -4
   18   19   SS      5
   18   19   SE    -11
   18   19   ES     12
   18   19   EE      3
   19   22   SS      4
   19   22   SE    -12
   19   22   ES     -1
   19   22   EE     -5
   20   22   SS      5
   20   22   SE     -6
   20   22   ES     -6
   20   22   EE     11
   21   22   SS      5
   21   22   SE     -1
   21   22   ES      0
   21   22   EE      6
************************************************************************
